NAME          BLANK   
ROWS
 N  OBJROW
 L  R0000000
COLUMNS
    C0000000  OBJROW     -457.         R0000000  309.        
    C0000001  OBJROW     -993.         R0000000  165.        
    C0000002  OBJROW     -869.         R0000000  465.        
    C0000003  OBJROW     -540.         R0000000  409.        
    C0000004  OBJROW     -580.         R0000000  736.        
    C0000005  OBJROW     -848.         R0000000  719.        
    C0000006  OBJROW     -387.         R0000000  194.        
    C0000007  OBJROW     -34.          R0000000  378.        
    C0000008  OBJROW     -876.         R0000000  386.        
    C0000009  OBJROW     -936.         R0000000  824.        
RHS
    RHS       R0000000  14144.      
BOUNDS
 BV BOUND     C0000000  1.          
 BV BOUND     C0000001  1.          
 BV BOUND     C0000002  1.          
 BV BOUND     C0000003  1.          
 BV BOUND     C0000004  1.          
 BV BOUND     C0000005  1.          
 BV BOUND     C0000006  1.          
 BV BOUND     C0000007  1.          
 BV BOUND     C0000008  1.          
 BV BOUND     C0000009  1.          
ENDATA
